
Gurobi 11.0.3 (linux64) logging started Mon Aug 25 15:05:06 2025

Set parameter LogFile to value "/home/yihong/Coding/OR_SUC/SUC_epstheta_results_bigM100000_thread4/case24_ieee_rts_theta0.1_epsilon0.1_gurobi_seed40000_num_gen100_N_WDR50_load_scaling_factor1_proposed_theta_T10quadra_cost_bc1.03.txt"
Set parameter TimeLimit to value 3600
Gurobi Optimizer version 11.0.3 build v11.0.3rc0 (linux64 - "Ubuntu 20.04.6 LTS")

CPU model: AMD EPYC 7532 32-Core Processor, instruction set [SSE2|AVX|AVX2]
Thread count: 64 physical cores, 128 logical processors, using up to 4 threads

Academic license 2399124 - for non-commercial use only - registered to yi___@ed.ac.uk
Optimize a model with 23642 rows, 12451 columns and 547142 nonzeros
Model fingerprint: 0xd14c63cd
Model has 1000 quadratic constraints
Variable types: 11451 continuous, 1000 integer (1000 binary)
Coefficient statistics:
  Matrix range     [3e-04, 2e+03]
  QMatrix range    [2e-03, 8e-03]
  QLMatrix range   [5e-01, 6e+01]
  Objective range  [1e+00, 1e+00]
  Bounds range     [1e+00, 1e+00]
  RHS range        [1e+00, 9e+03]
Presolve removed 19294 rows and 5322 columns
Presolve time: 0.24s
Presolved: 4348 rows, 7129 columns, 23956 nonzeros
Presolved model has 1000 quadratic constraint(s)
Variable types: 6129 continuous, 1000 integer (1000 binary)

Root relaxation: objective 1.478065e+04, 3543 iterations, 0.11 seconds (0.09 work units)

    Nodes    |    Current Node    |     Objective Bounds      |     Work
 Expl Unexpl |  Obj  Depth IntInf | Incumbent    BestBd   Gap | It/Node Time

     0     0 14780.6545    0   10          - 14780.6545      -     -    0s
     0     0 224842.785    0  226          - 224842.785      -     -    0s
     0     0 224852.443    0  226          - 224852.443      -     -    0s
     0     0 325619.635    0  210          - 325619.635      -     -    0s
     0     0 325627.878    0  208          - 325627.878      -     -    0s
     0     0 325690.957    0  138          - 325690.957      -     -    0s
     0     0 325690.977    0  138          - 325690.977      -     -    0s
     0     0 325691.295    0  138          - 325691.295      -     -    1s
     0     0 325691.295    0  138          - 325691.295      -     -    1s
     0     2 325691.321    0  138          - 325691.321      -     -    2s
H  299   259                    325796.58429 325708.100  0.03%   6.4    2s
*  299   259              78    325796.58429 325708.100  0.03%   6.4    2s

Cutting planes:
  Gomory: 69
  Implied bound: 275
  MIR: 20
  Flow cover: 37

Explored 327 nodes (10809 simplex iterations) in 2.75 seconds (2.00 work units)
Thread count was 4 (of 128 available processors)

Solution count 2: 325797 325797 

Optimal solution found (tolerance 1.00e-03)
Warning: max constraint violation (2.2105e-07) exceeds tolerance
Best objective 3.257965842897e+05, best bound 3.257081003589e+05, gap 0.0272%

Gurobi 11.0.3 (linux64) logging started Mon Aug 25 15:05:10 2025

Set parameter LogFile to value "/home/yihong/Coding/OR_SUC/SUC_epstheta_results_bigM100000_thread4/case24_ieee_rts_theta0.1_epsilon0.1_gurobi_seed40000_num_gen100_N_WDR50_load_scaling_factor1_proposed_theta_T10quadra_cost_bc1.03.txt"
Set parameter TimeLimit to value 3600
Gurobi Optimizer version 11.0.3 build v11.0.3rc0 (linux64 - "Ubuntu 20.04.6 LTS")

CPU model: AMD EPYC 7532 32-Core Processor, instruction set [SSE2|AVX|AVX2]
Thread count: 64 physical cores, 128 logical processors, using up to 4 threads

Academic license 2399124 - for non-commercial use only - registered to yi___@ed.ac.uk
Optimize a model with 23643 rows, 12452 columns and 550243 nonzeros
Model fingerprint: 0x45682852
Model has 1000 quadratic constraints
Variable types: 11452 continuous, 1000 integer (1000 binary)
Coefficient statistics:
  Matrix range     [3e-04, 2e+03]
  QMatrix range    [2e-03, 8e-03]
  QLMatrix range   [5e-01, 6e+01]
  Objective range  [1e+00, 1e+00]
  Bounds range     [1e-01, 1e+00]
  RHS range        [1e+00, 3e+05]
Presolve removed 17527 rows and 4439 columns
Presolve time: 0.19s
Presolved: 6116 rows, 8013 columns, 32685 nonzeros
Presolved model has 1000 quadratic constraint(s)
Variable types: 7011 continuous, 1002 integer (1002 binary)

Root relaxation: objective 9.247140e+00, 5993 iterations, 0.13 seconds (0.14 work units)

    Nodes    |    Current Node    |     Objective Bounds      |     Work
 Expl Unexpl |  Obj  Depth IntInf | Incumbent    BestBd   Gap | It/Node Time

     0     0    9.24714    0    -          -    9.24714      -     -    0s
     0     0    2.04160    0   12          -    2.04160      -     -    0s
     0     0    1.24296    0   10          -    1.24296      -     -    1s
     0     0    1.24296    0   10          -    1.24296      -     -    1s
     0     0    1.24296    0   10          -    1.24296      -     -    1s
     0     0    1.24272    0   10          -    1.24272      -     -    1s
H    0     0                       1.2408321    1.24272  0.15%     -    1s
     0     0    1.24272    0    3    1.24083    1.24272  0.15%     -    2s

Cutting planes:
  Flow cover: 3

Explored 1 nodes (15979 simplex iterations) in 2.47 seconds (1.98 work units)
Thread count was 4 (of 128 available processors)

Solution count 1: 1.24083 

Optimal solution found (tolerance 1.00e-03)
Best objective 1.240832090171e+00, best bound 1.240832265054e+00, gap 0.0000%
